20 10
82 61 75 53 78 77 84 74 79 77
80 70 53 78 71 75 75 79 72 69
91 84 91 95 90 77 86 97 92 92
26 18 11 3 10 8 9 26 4 34
43 61 50 42 47 56 51 61 43 67
85 48 63 57 60 60 83 71 68 83
46 36 41 42 37 43 44 65 46 53
49 63 50 45 49 37 47 44 46 55
69 71 66 80 64 83 81 75 73 56
14 21 27 16 12 19 28 22 30 30
54 62 50 60 34 55 43 39 46 46
91 77 79 80 91 84 89 71 71 89
86 85 79 94 88 92 93 91 78 95
66 57 54 40 39 47 46 48 52 51
43 59 73 73 43 61 71 69 68 39
23 35 25 32 43 45 26 24 29 32
96 95 91 92 96 88 95 92 89 85
93 88 82 91 92 94 92 93 89 82
81 50 50 70 61 57 67 71 49 57
12 17 26 8 16 9 20 28 14 22
